Gurobi Optimizer version 9.1.2 build v9.1.2rc0 (linux64)
Thread count: 36 physical cores, 72 logical processors, using up to 32 threads
Optimize a model with 12 rows, 57 columns and 590 nonzeros
Model fingerprint: 0xf32eec78
Model has 47 quadratic constraints
Coefficient statistics:
  Matrix range     [2e-05, 3e+00]
  QMatrix range    [1e+00, 1e+00]
  QLMatrix range   [1e+00, 1e+00]
  Objective range  [8e-03, 7e-01]
  Bounds range     [1e+00, 1e+00]
  RHS range        [1e+00, 1e+00]
Presolve removed 9 rows and 0 columns

Continuous model is non-convex -- solving as a MIP.

Presolve removed 9 rows and 0 columns
Presolve time: 0.00s
Presolved: 189 rows, 57 columns, 443 nonzeros
Presolved model has 47 bilinear constraint(s)
Variable types: 57 continuous, 0 integer (0 binary)

Root relaxation: objective -1.743721e+00, 44 iterations, 0.00 seconds

    Nodes    |    Current Node    |     Objective Bounds      |     Work
 Expl Unexpl |  Obj  Depth IntInf | Incumbent    BestBd   Gap | It/Node Time

     0     0   -1.74372    0   38          -   -1.74372      -     -    0s
H    0     0                       0.6147548   -1.74372   384%     -    0s
     0     0   -1.64739    0    1    0.61475   -1.64739   368%     -    0s
H    0     0                      -1.6450460   -1.64739  0.14%     -    0s
     0     0     cutoff    0        -1.64505   -1.64505  0.00%     -    0s

Cutting planes:
  RLT: 25
  BQP: 3

Explored 1 nodes (76 simplex iterations) in 0.01 seconds
Thread count was 32 (of 72 available processors)

Solution count 2: -1.64505 0.614755 
No other solutions better than -1.64505

Optimal solution found (tolerance 1.00e-04)
Best objective -1.645045978473e+00, best bound -1.645045978473e+00, gap 0.0000%

User-callback calls 77, time in user-callback 0.02 sec
Gurobi Optimizer version 9.1.2 build v9.1.2rc0 (linux64)
Thread count: 36 physical cores, 72 logical processors, using up to 32 threads
Optimize a model with 60 rows, 312 columns and 16100 nonzeros
Model fingerprint: 0x3bfdc692
Model has 262 quadratic constraints
Coefficient statistics:
  Matrix range     [4e-07, 7e+00]
  QMatrix range    [1e+00, 1e+00]
  QLMatrix range   [1e+00, 1e+00]
  Objective range  [4e-03, 1e+00]
  Bounds range     [1e+00, 1e+00]
  RHS range        [1e+00, 1e+00]
Presolve removed 15 rows and 0 columns

Continuous model is non-convex -- solving as a MIP.

Presolve removed 15 rows and 0 columns
Presolve time: 0.01s
Presolved: 1081 rows, 312 columns, 13447 nonzeros
Presolved model has 262 bilinear constraint(s)
Variable types: 312 continuous, 0 integer (0 binary)

Root relaxation: objective -2.380787e+01, 354 iterations, 0.02 seconds

    Nodes    |    Current Node    |     Objective Bounds      |     Work
 Expl Unexpl |  Obj  Depth IntInf | Incumbent    BestBd   Gap | It/Node Time

     0     0  -23.80787    0  172          -  -23.80787      -     -    0s
     0     0  -22.80949    0   65          -  -22.80949      -     -    0s
     0     0  -22.77341    0   83          -  -22.77341      -     -    0s
     0     0  -22.71912    0   74          -  -22.71912      -     -    0s
     0     0  -22.71797    0   74          -  -22.71797      -     -    0s
     0     0  -22.68439    0   74          -  -22.68439      -     -    0s
     0     0  -22.68294    0   68          -  -22.68294      -     -    0s
     0     0  -22.68098    0   68          -  -22.68098      -     -    0s
     0     0  -22.68085    0   68          -  -22.68085      -     -    0s
     0     0  -22.67983    0   74          -  -22.67983      -     -    0s
     0     0  -22.67954    0   74          -  -22.67954      -     -    0s
     0     0  -22.67808    0   74          -  -22.67808      -     -    0s
     0     0  -22.67767    0   74          -  -22.67767      -     -    0s
     0     0  -22.67667    0   68          -  -22.67667      -     -    0s
     0     0  -22.67665    0   74          -  -22.67665      -     -    0s
     0     0  -22.67665    0   74          -  -22.67665      -     -    0s
     0     0  -22.67665    0   74          -  -22.67665      -     -    0s
     0     2  -22.67665    0   74          -  -22.67665      -     -    0s
* 2028  1969              53     -21.5725174  -22.11113  2.50%  41.0    1s
* 2570  1877              51     -21.5811426  -22.07871  2.31%  39.9    1s
* 2657  1917              55     -21.5811662  -22.07871  2.31%  39.8    1s
* 2659  1917              56     -21.5811673  -22.07871  2.31%  39.8    1s
* 2660  1917              56     -21.5811673  -22.07871  2.31%  39.8    1s
* 3120  1954              57     -21.6611801  -22.07871  1.93%  40.2    1s
* 5018  1829              57     -21.6612823  -22.07871  1.93%  39.2    2s
* 5131  1829              58     -21.6613740  -22.07871  1.93%  38.9    2s
* 5369  1828              58     -21.6613831  -22.07871  1.93%  38.4    2s
* 5374  1828              58     -21.6617676  -22.07871  1.92%  38.4    2s
* 5376  1828              58     -21.6617718  -22.07871  1.92%  38.4    2s
* 5505  1834              59     -21.6617766  -22.07871  1.92%  38.2    3s
* 5579  1834              51     -21.6771344  -22.07871  1.85%  38.0    3s
* 5729  1766              61     -21.7445971  -22.07871  1.54%  37.8    3s
* 5730  1766              61     -21.7445974  -22.07871  1.54%  37.8    3s
* 7154  1548              41     -21.7448171  -21.77976  0.16%  35.3    3s
* 7535  1629              56     -21.7449962  -21.77910  0.16%  34.1    3s
* 7829  1709              41     -21.7450229  -21.77622  0.14%  33.4    3s
* 7834  1709              43     -21.7450621  -21.77622  0.14%  33.4    3s
* 7835  1709              43     -21.7450622  -21.77622  0.14%  33.4    3s
* 7839  1709              43     -21.7450622  -21.77622  0.14%  33.3    3s
* 7840  1709              43     -21.7450622  -21.77622  0.14%  33.3    3s
* 8014  1709              47     -21.7456192  -21.77622  0.14%  32.8    3s
* 8703  2021              46     -21.7461466  -21.76972  0.11%  31.1    4s
* 8972  2021              47     -21.7490648  -21.76972  0.09%  30.4    4s
* 9339  1931              48     -21.7494373  -21.76494  0.07%  29.5    4s
* 9400  1931              50     -21.7505375  -21.76494  0.07%  29.4    4s
* 9777  1912              67     -21.7507331  -21.75564  0.02%  28.5    4s
* 9779  1912              66     -21.7507611  -21.75564  0.02%  28.5    4s
* 9784  1912              66     -21.7507617  -21.75564  0.02%  28.5    4s
* 9842  1912              51     -21.7518278  -21.75541  0.02%  28.4    4s
*10518  1027              51     -21.7519363  -21.75325  0.01%  26.9    4s
*10674  1027              45     -21.7520513  -21.75303  0.00%  26.5    4s

Cutting planes:
  RLT: 31
  BQP: 6
  PSD: 79

Explored 11604 nodes (285816 simplex iterations) in 4.46 seconds
Thread count was 32 (of 72 available processors)

Solution count 10: -21.7521 -21.7519 -21.7518 ... -21.7461

Optimal solution found (tolerance 1.00e-04)
Best objective -2.175205128778e+01, best bound -2.175268659529e+01, gap 0.0029%

User-callback calls 23918, time in user-callback 0.01 sec



objective value: -21.752051287783388
objective bound: -21.752686595291006
x_opt: [1.0, 1.0, 0.0, 0.3840067558912994, 0.0, 0.0, 1.0, 0.0, 0.0, 0.0, 1.0, 8.326672684688674e-16, 1.0, 1.0, 0.1611946492365772, 1.0, 0.0, 1.0, 0.0, 0.0, 1.0, 0.6765057408287797, 0.0, 0.8218055542296304, 0.0, 0.7925539782703702, 0.0, 1.0, 0.0, 0.0, 0.9999986487895903, 0.8789089800920311, 0.0, 0.3807797645041802, 1.0, 1.0, 0.06690733879673949, 1.0, 0.0, 0.813973899409929, 1.0, 0.0, 1.0, 0.0, 0.0, 0.09254817665902938, 0.9124079867577674, 9.376267346187307e-6, 1.0, 0.16815856945426652]
GUROBI solution time: 4.458635091781616




